set Vertices := 22 24 25 26 27 28 29 30 31 32 33 34 ; 
param k := 24;
param m := 5;
set Edges := (22,24) (22,25) (22,26) (22,27) (22,28) (22,29) (22,30) (22,31) (22,32) (22,33) (22,34) ;
set EdgesPrime := (22,25) (22,26) (22,27) (22,28) (22,29) (22,30) (22,31) (22,32) (22,33) (22,34) ;
param u := 
22 24 3
22 25 15
22 26 12
22 27 2
22 28 3
22 29 6
22 30 5
22 31 7
22 32 8
22 33 9
22 34 4
; 
param w := 
22 1
24 1
25 4
26 2
27 2
28 1
29 1
30 5
31 3
32 3
33 1
34 1
;